clingo version 5.4.0
Reading from merger/Adrian/merge.lp ...
Solving...
UNSATISFIABLE

Models       : 0
Calls        : 1
Time         : 572.683s (Solving: 538.76s 1st Model: 0.00s Unsat: 538.76s)
CPU Time     : 572.036s
